(set-logic QF_UF)
(declare-fun A0 () Bool)
(declare-fun A1 () Bool)
(declare-fun A2 () Bool)
(declare-fun A3 () Bool)
(declare-fun A4 () Bool)
(declare-fun A5 () Bool)
(declare-fun A6 () Bool)
(declare-fun A7 () Bool)
(declare-fun A8 () Bool)
(declare-fun A9 () Bool)
(declare-fun A10 () Bool)
(declare-fun A11 () Bool)
(declare-fun A12 () Bool)
(declare-fun A13 () Bool)
(declare-fun A14 () Bool)
(declare-fun A15 () Bool)
(declare-fun A16 () Bool)
(declare-fun A17 () Bool)
(declare-fun A18 () Bool)
(declare-fun A19 () Bool)
(declare-fun A20 () Bool)
(declare-fun A21 () Bool)
(declare-fun A22 () Bool)
(declare-fun A23 () Bool)
(declare-fun A24 () Bool)
(assert (let ((.def_0 (not A7))) (let ((.def_1 (or A12 .def_0))) (let ((.def_2 (not A4))) (let ((.def_3 (not A6))) (let ((.def_4 (and .def_3 .def_2))) (let ((.def_5 (or .def_4 .def_1))) (let ((.def_6 (not .def_5))) (let ((.def_7 (not A16))) (let ((.def_8 (and .def_7 A22))) (let ((.def_9 (not .def_8))) (let ((.def_10 (not A22))) (let ((.def_11 (and A14 .def_10))) (let ((.def_12 (or .def_11 .def_9))) (let ((.def_13 (not .def_12))) (let ((.def_14 (and .def_13 .def_6))) (let ((.def_15 (not A20))) (let ((.def_16 (or .def_15 A16))) (let ((.def_17 (not A9))) (let ((.def_18 (not A24))) (let ((.def_19 (or .def_18 .def_17))) (let ((.def_20 (not .def_19))) (let ((.def_21 (= .def_20 .def_16))) (let ((.def_22 (or A5 A19))) (let ((.def_23 (not A2))) (let ((.def_24 (or .def_23 A11))) (let ((.def_25 (not .def_24))) (let ((.def_26 (and .def_25 .def_22))) (let ((.def_27 (or .def_26 .def_21))) (let ((.def_28 (or .def_27 .def_14))) (let ((.def_29 (not A23))) (let ((.def_30 (= .def_29 .def_7))) (let ((.def_31 (not .def_30))) (let ((.def_32 (not A10))) (let ((.def_33 (= A15 .def_32))) (let ((.def_34 (or .def_33 .def_31))) (let ((.def_35 (not A12))) (let ((.def_36 (or .def_35 .def_29))) (let ((.def_37 (not A17))) (let ((.def_38 (and .def_37 .def_17))) (let ((.def_39 (not .def_38))) (let ((.def_40 (and .def_39 .def_36))) (let ((.def_41 (and .def_40 .def_34))) (let ((.def_42 (not A14))) (let ((.def_43 (or .def_32 .def_42))) (let ((.def_44 (not .def_43))) (let ((.def_45 (and .def_10 A3))) (let ((.def_46 (not .def_45))) (let ((.def_47 (and .def_46 .def_44))) (let ((.def_48 (or A12 .def_23))) (let ((.def_49 (and A1 .def_17))) (let ((.def_50 (not .def_49))) (let ((.def_51 (and .def_50 .def_48))) (let ((.def_52 (not .def_51))) (let ((.def_53 (and .def_52 .def_47))) (let ((.def_54 (not .def_53))) (let ((.def_55 (and .def_54 .def_41))) (let ((.def_56 (not .def_55))) (let ((.def_57 (and .def_56 .def_28))) (let ((.def_58 (not A21))) (let ((.def_59 (and .def_58 A1))) (let ((.def_60 (not .def_59))) (let ((.def_61 (and .def_3 .def_0))) (let ((.def_62 (not .def_61))) (let ((.def_63 (or .def_62 .def_60))) (let ((.def_64 (not .def_63))) (let ((.def_65 (not A5))) (let ((.def_66 (or .def_15 .def_65))) (let ((.def_67 (not .def_66))) (let ((.def_68 (= .def_0 A5))) (let ((.def_69 (not .def_68))) (let ((.def_70 (or .def_69 .def_67))) (let ((.def_71 (and .def_70 .def_64))) (let ((.def_72 (and A2 A9))) (let ((.def_73 (not A11))) (let ((.def_74 (or .def_73 A3))) (let ((.def_75 (not .def_74))) (let ((.def_76 (or .def_75 .def_72))) (let ((.def_77 (not A1))) (let ((.def_78 (and .def_77 A21))) (let ((.def_79 (not .def_78))) (let ((.def_80 (= A20 A2))) (let ((.def_81 (or .def_80 .def_79))) (let ((.def_82 (and .def_81 .def_76))) (let ((.def_83 (not .def_82))) (let ((.def_84 (and .def_83 .def_71))) (let ((.def_85 (not .def_84))) (let ((.def_86 (and A2 .def_37))) (let ((.def_87 (or A0 A1))) (let ((.def_88 (and .def_87 .def_86))) (let ((.def_89 (not A8))) (let ((.def_90 (= A15 .def_89))) (let ((.def_91 (not .def_90))) (let ((.def_92 (or A2 .def_77))) (let ((.def_93 (not .def_92))) (let ((.def_94 (and .def_93 .def_91))) (let ((.def_95 (not .def_94))) (let ((.def_96 (and .def_95 .def_88))) (let ((.def_97 (not .def_96))) (let ((.def_98 (not A18))) (let ((.def_99 (or .def_98 A13))) (let ((.def_100 (not .def_99))) (let ((.def_101 (not A3))) (let ((.def_102 (or .def_101 A23))) (let ((.def_103 (= .def_102 .def_100))) (let ((.def_104 (not .def_103))) (let ((.def_105 (and .def_0 .def_73))) (let ((.def_106 (not .def_105))) (let ((.def_107 (and A21 .def_2))) (let ((.def_108 (not .def_107))) (let ((.def_109 (or .def_108 .def_106))) (let ((.def_110 (or .def_109 .def_104))) (let ((.def_111 (not .def_110))) (let ((.def_112 (or .def_111 .def_97))) (let ((.def_113 (not .def_112))) (let ((.def_114 (or .def_113 .def_85))) (let ((.def_115 (not .def_114))) (let ((.def_116 (and .def_115 .def_57))) (let ((.def_117 (not .def_116))) .def_117)))))))))))))))))))))))))))))))))))))))))))))))))))))))))))))))))))))))))))))))))))))))))))))))))))))))))))))))))))))))
(check-sat)
